32      4       
12      18      14      20      
0       0       0       0       0       5       2       4       6       7       17      
3       0       1       0       4       4       10      8       5       3       
9       0       0       1       1       4       23      15      12      11      
10      0       0       3       4       3       13      10      9       
10      5       1       0       0       5       31      23      14      13      11      
5       4       0       0       12      4       20      16      15      10      
10      0       8       0       14      3       23      20      10      
7       6       0       10      0       4       23      21      14      12      
9       6       0       2       0       6       30      29      23      21      20      14      
9       1       0       0       5       5       31      30      29      21      14      
10      1       1       0       0       5       29      28      20      18      16      
7       1       0       0       9       6       31      30      29      28      22      19      
4       1       4       0       0       5       29      28      22      20      19      
2       0       6       1       0       4       28      27      19      18      
3       0       2       9       0       4       28      27      26      21      
6       1       0       3       0       4       30      26      24      22      
9       0       1       1       0       4       31      27      24      22      
3       4       2       0       0       2       24      22      
1       0       0       5       1       2       26      24      
7       0       0       8       3       2       27      24      
3       0       1       1       0       2       25      24      
3       0       12      0       1       1       25      
2       5       0       1       0       1       25      
10      4       0       0       1       1       32      
2       0       14      1       0       1       32      
9       1       1       0       0       1       32      
2       0       0       6       2       1       32      
8       2       0       1       0       1       32      
8       3       0       0       8       1       32      
10      0       13      0       6       1       32      
4       0       1       0       4       1       32      
0       0       0       0       0       0       
